N = 5;

pezzi = [|
0,5,0,9|
3,4,3,2|
7,0,0,9|
5,5,4,2|
7,6,5,4|
3,2,7,6|
7,7,5,0|
5,8,7,8|
0,2,5,7|
0,6,1,8|
9,2,4,6|
4,0,8,4|
8,8,3,5|
4,6,5,4|
4,9,9,7|
8,9,3,6|
5,9,2,0|
3,8,9,5|
1,4,0,6|
1,2,1,2|
4,4,3,9|
3,2,4,1|
0,6,3,9|
9,6,8,8|
5,1,5,7|];
